p cnf 32 84
a 11 5 0
e 1 2 3 4 6 7 8 9 10 12 13 14 15 16 17 18 19 20 21 22 23 24 25 26 27 28 29 30 31 32 0
-1 -2 -3 0
1 2 -3 0
-1 2 3 0
1 -2 3 0
-4 5 -6 0
4 -5 -6 0
-4 -5 6 0
4 5 6 0
-3 6 -7 0
3 -6 -7 0
-3 -6 7 0
3 6 7 0
-8 4 0
-8 -5 0
-4 5 8 0
-8 5 -9 0
8 -5 -9 0
-8 -5 9 0
8 5 9 0
1 -10 -11 0
-1 10 -11 0
1 10 11 0
-1 -10 11 0
-12 9 0
-12 -11 0
-9 11 12 0
14 13 0
14 6 0
-13 -6 -14 0
16 -15 0
16 -4 0
15 4 -16 0
-18 2 0
-18 -17 0
-2 17 18 0
19 -16 0
19 18 0
16 -18 -19 0
20 14 0
20 19 0
-14 -19 -20 0
21 -12 0
21 -20 0
12 20 -21 0
-22 7 0
-22 21 0
-7 -21 22 0
23 -15 0
23 17 0
15 -17 -23 0
25 -3 0
25 24 0
3 -24 -25 0
5 -3 -26 0
-5 3 -26 0
5 3 26 0
-5 -3 26 0
25 -26 -27 0
-25 26 -27 0
25 26 27 0
-25 -26 27 0
-29 15 0
-29 -28 0
-15 28 29 0
-30 27 0
-30 -29 0
-27 29 30 0
23 30 -31 0
-23 -30 -31 0
23 -30 31 0
-23 30 31 0
-22 -31 -32 0
22 31 -32 0
-22 31 32 0
22 -31 32 0
7 -17 14 32 26 -19 8 23 0
22 5 12 -3 4 0
-3 -21 29 -6 0
21 24 17 7 22 -14 0
29 -2 -16 30 20 5 0
-9 -7 28 -5 -17 -14 0
5 -28 0
24 -22 -29 0
32 0
